73 
300 
10.5 14.4 0 0
11.2 14.1 0 -85
18 15.9 10 -25
18.3 13.3 -10 -109
16.5 9.3 10 -13
15.4 11 -10 -111
14.9 13.2 5 -15
16.3 13.3 5 -17
16.4 17.8 5 -14
15 17.9 -5 -112
16.1 19.6 10 -23
15.7 20.6 10 -13
13.2 20.1 10 -14
14.3 15.3 -5 -115
14 5.1 -10 -124
11.4 6.7 15 -10
8.3 5 15 -16
7.9 9.8 10 -29
11.4 12 5 -10
11.2 17.6 5 -25
10.1 18.7 5 -12
11.7 20.3 -10 -122
10.2 22.1 10 -18
9.7 23.8 10 -13
10.1 26.4 -15 -62
7.4 24 -15 -123
8.2 19.9 15 -13
8.7 17.7 -10 -86
8.9 13.6 -10 -88
5.6 11.1 -10 -127
4.9 18.9 10 -25
7.3 18.8 10 -21
